Version identifier: 20.1.0.0 | 2020-11-10 | 9bedb6d68
CPXPARAM_Threads                                 1
CPXPARAM_TimeLimit                               7200
CPXPARAM_MIP_Tolerances_MIPGap                   0
Generic callback                                 0x60
1 of 1 MIP starts provided solutions.
MIP start 'm1' defined initial solution with objective 2705.7675.
Tried aggregator 1 time.
Reduced MIP has 800801 rows, 801001 columns, and 2401000 nonzeros.
Reduced MIP has 1000 binaries, 0 generals, 0 SOSs, and 0 indicators.
Presolve time = 0.79 sec. (759.66 ticks)
Probing time = 0.11 sec. (100.05 ticks)
Tried aggregator 1 time.
Reduced MIP has 800801 rows, 801001 columns, and 2401000 nonzeros.
Reduced MIP has 1000 binaries, 0 generals, 0 SOSs, and 0 indicators.
Presolve time = 0.80 sec. (746.68 ticks)
Probing time = 0.10 sec. (100.05 ticks)
MIP emphasis: balance optimality and feasibility.
MIP search method: dynamic search.
Parallel mode: none, using 1 thread.
Root relaxation solution time = 0.24 sec. (308.42 ticks)

        Nodes                                         Cuts/
   Node  Left     Objective  IInf  Best Integer    Best Bound    ItCnt     Gap

*     0+    0                         2705.7675     4368.0000            61.43%
      0     0     2889.3866    10     2705.7675     4368.0000        0   61.43%
*     0+    0                         2706.4272     2889.3866             6.76%
      0     2     2706.4404    12     2706.4272     2706.4402        0    0.00%
Elapsed time = 97.63 sec. (84492.82 ticks, tree = 0.01 MB, solutions = 2)
      2     3     2706.4327    28     2706.4272     2706.4315       52    0.00%
      3     2        cutoff           2706.4272     2706.4315       58    0.00%
      4     1        cutoff           2706.4272     2706.4300       61    0.00%
      5     0        cutoff           2706.4272     2706.4272       82    0.00%

User cuts applied:  3

Root node processing (before b&c):
  Real time             =   97.60 sec. (84477.04 ticks)
Sequential b&c:
  Real time             =   14.28 sec. (2584.99 ticks)
                          ------------
Total (root+branch&cut) =  111.88 sec. (87062.03 ticks)
@Parameters: 
is_S_cut                                true
is_add_all_yinF                         true
is_start_value                          true
is_usercut                              true
is_visualization                        false
uc_only_rootnode                        false

data                                    Qi
fn                                      data/Qi/instance_800_1000.csv
mode                                    ZLP
solver                                  cplex

p                                       50
r                                       10

EPS                                     1.0e-06
EPS_vio                                 1.0e-04
beta                                    0.10
gap                                     0.00
nodelimit                               Inf
timelimit                               7200.00


@PrintInfos
ItCnt: 82
Current gap: 0.00 %
Termination Status: OPTIMAL
Primal Status: FEASIBLE_POINT
Solve Time: 111.88 sec
Objective Value: 2706.427151
Number of Nodes:      6

CutInfo: [phase] num / time (sec) 
ZLP             [phase1]     0 / 0.00 [rLC]     4 / 15.28 [rUC]     1 / 2.52 [sLC]     0 / 0.00 [sUC]     1 / 11.25 
OldSubmodular   [phase1]     0 / 0.00 [rLC]     0 / 0.00 [rUC]     0 / 0.00 [sLC]     0 / 0.00 [sUC]     0 / 0.00 
NewSubmodular   [phase1]     0 / 0.00 [rLC]     0 / 0.00 [rUC]     0 / 0.00 [sLC]     0 / 0.00 [sUC]     0 / 0.00 
PMP             [phase1]     0 / 0.00 [rLC]     6 / 8.86 [rUC]     1 / 1.46 [sLC]     0 / 0.00 [sUC]     5 / 7.94 
Separation Round: [phase1] 0  [rLC] 6  [rUC] 1  [sLC] 0  [sUC] 5
Root Best Bound 2706.439974
Root Best Integer: 2706.427151
Best Bound: 2706.427151
Best Integer: 2706.427151

